NAME : XML100_1345_26
DIMENSION : 101
NB_CLUSTERS : 31
CLUSTERING_ALG : DBSCAN
CLUSTERING_PARAMS : eps(17), minSamples(3)
CLUSTERS
1 0
2 12 19 35 36 39 50 96
3 4 8 24 37 44 65 75 78 81
4 15 60
5 22 23 80
6 48 55 57 88 99
7 2 3 38 69 94
8 52 84 95
9 18 27 46 47 62 63 100
10 67 89
11 58 64 72 83
12 28 33
13 13 29 68
14 6 14
15 17 61 90 98
16 21 32 40 59
17 54 79 86
18 43 87
19 11 92
20 5 70 93
21 20 49
22 16 56
23 73 77
24 9 34 66 82
25 10 97
26 1 31
27 7 91
28 30 51 85
29 45 71
30 25 53 76
31 26 41 42 74
EOF